NCORE = 6
ENMAX = 550.0
ALGO = FAST
PREC = accurate
EDIFF = 1E-6
ISMEAR = 1
SIGMA = 0.2
ISIF = 3
IBRION = 2
NSW = 61
LCHARG = .FALSE.
LREAL = .FALSE.
LWAVE = .FALSE.
