
1.0
3.19218907 0.00000000 0.00000000
-1.59609453 2.76451683 0.00000000
0.00000000 0.00000000 10.36803914
   Cd   Mg
   2   2
Cartesian
-0.00000001    1.84301123    3.88801468    Cd
1.59609455    0.92150560    1.29600489    Cd
-0.00000001    1.84301123    9.07203425    Mg
1.59609455    0.92150560    6.48002446    Mg
